(declare-fun temp914_1 () (_ BitVec 64))
(declare-fun var89147 () (_ BitVec 64))
(declare-fun k!0 () Bool)
(declare-fun ARGNAME_source_NAMEEND_LEN () (_ BitVec 64))
(declare-fun ARGNAME_destination_NAMEEND_LEN () (_ BitVec 64))
(declare-fun temp914_3 () (_ BitVec 64))
(declare-fun temp914_2 () (_ BitVec 64))
(declare-fun temp914_4 () (_ BitVec 64))
(declare-fun var201290 () (_ BitVec 64))
(declare-fun var201292 () (_ BitVec 64))
(declare-fun temp914_5 () (_ BitVec 64))
(declare-fun var461075 () (_ BitVec 64))
(declare-fun temp914_7 () (_ BitVec 64))
(declare-fun temp914_6 () (_ BitVec 64))
(declare-fun temp914_8 () (_ BitVec 64))
(declare-fun var856650 () (_ BitVec 64))
(declare-fun var856652 () (_ BitVec 64))
(declare-fun temp914_9 () (_ BitVec 64))
(declare-fun var1116435 () (_ BitVec 64))
(declare-fun temp914_11 () (_ BitVec 64))
(declare-fun temp914_10 () (_ BitVec 64))
(declare-fun var1577925 () (_ BitVec 64))
(declare-fun temp914_12 () (_ BitVec 64))
(declare-fun temp914_13 () (_ BitVec 64))
(declare-fun var1643466 () (_ BitVec 64))
(declare-fun temp914_15 () (_ BitVec 64))
(declare-fun temp914_14 () (_ BitVec 64))
(declare-fun var2298821 () (_ BitVec 64))
(declare-fun temp914_16 () (_ BitVec 64))
(declare-fun temp914_17 () (_ BitVec 64))
(declare-fun var2364362 () (_ BitVec 64))
(declare-fun temp914_18 () (_ BitVec 64))
(declare-fun var3019338 () (_ BitVec 64))
(declare-fun var3019340 () (_ BitVec 64))
(declare-fun temp914_19 () (_ BitVec 64))
(declare-fun var4461130 () (_ BitVec 64))
(declare-fun var4461132 () (_ BitVec 64))
(declare-fun temp914_20 () (_ BitVec 64))
(declare-fun ARGNAME_input_NAMEEND_DIM () (_ BitVec 64))
(declare-fun var89269 () (_ BitVec 64))
(declare-fun temp914_21 () (_ BitVec 64))
(declare-fun temp914_23 () (_ BitVec 64))
(declare-fun temp914_22 () (_ BitVec 64))
(declare-fun temp914_24 () (_ BitVec 64))
(declare-fun var5837386 () (_ BitVec 64))
(declare-fun var5837388 () (_ BitVec 64))
(declare-fun temp914_26 () (_ BitVec 64))
(declare-fun temp914_25 () (_ BitVec 64))
(declare-fun temp914_27 () (_ BitVec 64))
(declare-fun var7082570 () (_ BitVec 64))
(declare-fun var7082572 () (_ BitVec 64))
(declare-fun temp914_29 () (_ BitVec 64))
(declare-fun temp914_28 () (_ BitVec 64))
(declare-fun temp914_30 () (_ BitVec 64))
(declare-fun var8262218 () (_ BitVec 64))
(declare-fun var8262220 () (_ BitVec 64))
(declare-fun temp914_32 () (_ BitVec 64))
(declare-fun temp914_31 () (_ BitVec 64))
(declare-fun var9966533 () (_ BitVec 64))
(declare-fun temp914_33 () (_ BitVec 64))
(declare-fun temp914_34 () (_ BitVec 64))
(declare-fun var10032074 () (_ BitVec 64))
(declare-fun temp914_36 () (_ BitVec 64))
(declare-fun temp914_35 () (_ BitVec 64))
(declare-fun temp914_38 () (_ BitVec 64))
(declare-fun temp914_37 () (_ BitVec 64))
(declare-fun var89398 () (_ BitVec 64))
(declare-fun var10947449 () (_ BitVec 64))
(declare-fun temp914_40 () (_ BitVec 64))
(declare-fun temp914_39 () (_ BitVec 64))
(declare-fun var11013441 () (_ BitVec 64))
(declare-fun var11013442 () (_ BitVec 64))
(declare-fun temp914_41 () (_ BitVec 64))
(declare-fun temp914_42 () (_ BitVec 64))
(declare-fun var11078983 () (_ BitVec 64))
(declare-fun var11144530 () (_ BitVec 64))
(declare-fun var10947469 () (_ BitVec 64))
(assert (= var89147
   (ite (= ARGNAME_source_NAMEEND_LEN ARGNAME_destination_NAMEEND_LEN)
        #x0000000000000001
        #x0000000000000000)))
(assert (= temp914_1 #x0000000000000001))
(assert (= var89147 temp914_1))
(assert (= temp914_3 #x0000000000000000))
(assert (= temp914_2 temp914_3))
(assert (= temp914_4 #x0000000000000005))
(assert (= var201290 temp914_4))
(assert (= var201292 var201290))
(assert (= temp914_5 #x0000000000000000))
(assert (= var461075 temp914_5))
(assert (= temp914_7 #x0000000000000000))
(assert (= temp914_6 temp914_7))
(assert (= temp914_8 #x0000000000000005))
(assert (= var856650 temp914_8))
(assert (= var856652 var856650))
(assert (= temp914_9 #x0000000000000000))
(assert (= var1116435 temp914_9))
(assert (= temp914_11 #x0000000000000000))
(assert (= temp914_10 temp914_11))
(assert (= var1577925
   (ite (bvslt temp914_10 ARGNAME_source_NAMEEND_LEN)
        #x0000000000000001
        #x0000000000000000)))
(assert (= temp914_12
   (ite (= var1577925 #x0000000000000001) ARGNAME_source_NAMEEND_LEN temp914_10)))
(assert (= temp914_13 #x0000000000000000))
(assert (= var1643466 temp914_13))
(assert (= temp914_15 #x0000000000000000))
(assert (= temp914_14 temp914_15))
(assert (= var2298821
   (ite (bvslt temp914_14 ARGNAME_destination_NAMEEND_LEN)
        #x0000000000000001
        #x0000000000000000)))
(assert (= temp914_16
   (ite (= var2298821 #x0000000000000001)
        ARGNAME_destination_NAMEEND_LEN
        temp914_14)))
(assert (= temp914_17 #x0000000000000000))
(assert (= var2364362 temp914_17))
(assert (= temp914_18 #x0000000000000005))
(assert (= var3019338 temp914_18))
(assert (= var3019340 var3019338))
(assert (= temp914_19 #x0000000000000005))
(assert (= var4461130 temp914_19))
(assert (= var4461132 var4461130))
(assert (= temp914_20 #x0000000000000000))
(assert (= var89269
   (ite (= ARGNAME_input_NAMEEND_DIM temp914_20)
        #x0000000000000001
        #x0000000000000000)))
(assert (= temp914_21 #x0000000000000000))
(assert (= var89269 temp914_21))
(assert (= temp914_23 #x0000000000000000))
(assert (= temp914_22 temp914_23))
(assert (= temp914_24 #x0000000000000005))
(assert (= var5837386 temp914_24))
(assert (= var5837388 var5837386))
(assert (= temp914_26 #x0000000000000000))
(assert (= temp914_25 temp914_26))
(assert (= temp914_27 #x0000000000000005))
(assert (= var7082570 temp914_27))
(assert (= var7082572 var7082570))
(assert (= temp914_29 #x0000000000000000))
(assert (= temp914_28 temp914_29))
(assert (= temp914_30 #x0000000000000005))
(assert (= var8262218 temp914_30))
(assert (= var8262220 var8262218))
(assert (= temp914_32 #x0000000000000000))
(assert (= temp914_31 temp914_32))
(assert (= var9966533
   (ite (bvslt temp914_31 ARGNAME_source_NAMEEND_LEN)
        #x0000000000000001
        #x0000000000000000)))
(assert (= temp914_33
   (ite (= var9966533 #x0000000000000001) ARGNAME_source_NAMEEND_LEN temp914_31)))
(assert (= temp914_34 #x0000000000000000))
(assert (= var10032074 temp914_34))
(assert (= temp914_36 #xffffffffffffffff))
(assert (= temp914_35 temp914_36))
(assert (= temp914_38 #xffffffffffffffff))
(assert (= temp914_37 temp914_38))
(assert (= var89398 (bvsub ARGNAME_input_NAMEEND_DIM ARGNAME_source_NAMEEND_LEN)))
(assert (= var10947449 var89398))
(assert (= temp914_40 #x0000000000000000))
(assert (= temp914_39 temp914_40))
(assert (= var11013441 var10947449))
(assert (= var11013442
   (ite (bvslt temp914_39 var11013441) #x0000000000000001 #x0000000000000000)))
(assert (= temp914_41 (ite (= var11013442 #x0000000000000001) var10947449 temp914_39)))
(assert (= temp914_42 #x0000000000000000))
(assert (= var11078983 temp914_42))
(assert (= var11144530 var11078983))
(assert (= var10947469 var11144530))
(model-add temp914_1 () (_ BitVec 64) #x0000000000000001)
(model-add var89147 () (_ BitVec 64) #x0000000000000001)
(model-del k!0)
(model-add ARGNAME_source_NAMEEND_LEN
           ()
           (_ BitVec 64)
           (ite k!0
                ARGNAME_destination_NAMEEND_LEN
                (bvnot ARGNAME_destination_NAMEEND_LEN)))





